PARAMETER_FILE = even/even_uncomplete_graph_new/nei/par/random16.par
PROBLEM_FILE = even/even_uncomplete_graph_new/nei/mat/random16.tsp
Successes/Runs = 1/0
Cost.min = 304, Cost.avg = 304.00, Cost.max = 304
Gap.min = 0.0000%, Gap.avg = 0.0000%, Gap.max = 0.0000%
Trials.min = 0, Trials.avg = 0.0, Trials.max = 0
Time.min = 0.00 sec., Time.avg = 0.00 sec., Time.max = 0.00 sec.
Time.total = 0.01 sec.
